; Benchmark for LTL-sketching problem
(set-logic QF_UF)
(set-info :status unknown)
(declare-fun z_0_0 () Bool)
(declare-fun z_0_2 () Bool)
(declare-fun z_0_7 () Bool)
(declare-fun z_0_13 () Bool)
(declare-fun z_0_19 () Bool)
(declare-fun z_0_23 () Bool)
(declare-fun z_0_26 () Bool)
(declare-fun z_0_27 () Bool)
(declare-fun z_0_30 () Bool)
(declare-fun z_0_31 () Bool)
(declare-fun z_0_32 () Bool)
(declare-fun z_0_38 () Bool)
(declare-fun z_0_44 () Bool)
(declare-fun z_0_51 () Bool)
(declare-fun z_0_58 () Bool)
(declare-fun z_0_62 () Bool)
(declare-fun z_0_68 () Bool)
(declare-fun z_0_71 () Bool)
(declare-fun z_0_75 () Bool)
(declare-fun z_0_78 () Bool)
(declare-fun z_2_0 () Bool)
(declare-fun z_5_0 () Bool)
(declare-fun z_2_1 () Bool)
(declare-fun z_5_1 () Bool)
(declare-fun z_0_1 () Bool)
(declare-fun z_2_2 () Bool)
(declare-fun z_5_2 () Bool)
(declare-fun z_2_3 () Bool)
(declare-fun z_5_3 () Bool)
(declare-fun z_0_3 () Bool)
(declare-fun z_2_4 () Bool)
(declare-fun z_5_4 () Bool)
(declare-fun z_0_4 () Bool)
(declare-fun z_2_5 () Bool)
(declare-fun z_5_5 () Bool)
(declare-fun z_0_5 () Bool)
(declare-fun z_2_6 () Bool)
(declare-fun z_5_6 () Bool)
(declare-fun z_0_6 () Bool)
(declare-fun z_2_7 () Bool)
(declare-fun z_5_7 () Bool)
(declare-fun z_2_8 () Bool)
(declare-fun z_5_8 () Bool)
(declare-fun z_0_8 () Bool)
(declare-fun z_2_9 () Bool)
(declare-fun z_5_9 () Bool)
(declare-fun z_0_9 () Bool)
(declare-fun z_2_10 () Bool)
(declare-fun z_5_10 () Bool)
(declare-fun z_0_10 () Bool)
(declare-fun z_2_11 () Bool)
(declare-fun z_5_11 () Bool)
(declare-fun z_0_11 () Bool)
(declare-fun z_2_12 () Bool)
(declare-fun z_5_12 () Bool)
(declare-fun z_0_12 () Bool)
(declare-fun z_2_13 () Bool)
(declare-fun z_5_13 () Bool)
(declare-fun z_2_14 () Bool)
(declare-fun z_5_14 () Bool)
(declare-fun z_0_14 () Bool)
(declare-fun z_2_15 () Bool)
(declare-fun z_5_15 () Bool)
(declare-fun z_0_15 () Bool)
(declare-fun z_2_16 () Bool)
(declare-fun z_5_16 () Bool)
(declare-fun z_0_16 () Bool)
(declare-fun z_2_17 () Bool)
(declare-fun z_5_17 () Bool)
(declare-fun z_0_17 () Bool)
(declare-fun z_2_18 () Bool)
(declare-fun z_5_18 () Bool)
(declare-fun z_0_18 () Bool)
(declare-fun z_2_19 () Bool)
(declare-fun z_5_19 () Bool)
(declare-fun z_2_20 () Bool)
(declare-fun z_5_20 () Bool)
(declare-fun z_0_20 () Bool)
(declare-fun z_2_21 () Bool)
(declare-fun z_5_21 () Bool)
(declare-fun z_0_21 () Bool)
(declare-fun z_2_22 () Bool)
(declare-fun z_5_22 () Bool)
(declare-fun z_0_22 () Bool)
(declare-fun z_2_23 () Bool)
(declare-fun z_5_23 () Bool)
(declare-fun z_2_24 () Bool)
(declare-fun z_5_24 () Bool)
(declare-fun z_0_24 () Bool)
(declare-fun z_2_25 () Bool)
(declare-fun z_5_25 () Bool)
(declare-fun z_0_25 () Bool)
(declare-fun z_2_26 () Bool)
(declare-fun z_5_26 () Bool)
(declare-fun z_2_27 () Bool)
(declare-fun z_5_27 () Bool)
(declare-fun z_2_28 () Bool)
(declare-fun z_5_28 () Bool)
(declare-fun z_0_28 () Bool)
(declare-fun z_2_29 () Bool)
(declare-fun z_5_29 () Bool)
(declare-fun z_0_29 () Bool)
(declare-fun z_2_30 () Bool)
(declare-fun z_5_30 () Bool)
(declare-fun z_2_31 () Bool)
(declare-fun z_5_31 () Bool)
(declare-fun z_2_32 () Bool)
(declare-fun z_5_32 () Bool)
(declare-fun z_2_33 () Bool)
(declare-fun z_5_33 () Bool)
(declare-fun z_0_33 () Bool)
(declare-fun z_2_34 () Bool)
(declare-fun z_5_34 () Bool)
(declare-fun z_0_34 () Bool)
(declare-fun z_2_35 () Bool)
(declare-fun z_5_35 () Bool)
(declare-fun z_0_35 () Bool)
(declare-fun z_2_36 () Bool)
(declare-fun z_5_36 () Bool)
(declare-fun z_0_36 () Bool)
(declare-fun z_2_37 () Bool)
(declare-fun z_5_37 () Bool)
(declare-fun z_0_37 () Bool)
(declare-fun z_2_38 () Bool)
(declare-fun z_5_38 () Bool)
(declare-fun z_2_39 () Bool)
(declare-fun z_5_39 () Bool)
(declare-fun z_0_39 () Bool)
(declare-fun z_2_40 () Bool)
(declare-fun z_5_40 () Bool)
(declare-fun z_0_40 () Bool)
(declare-fun z_2_41 () Bool)
(declare-fun z_5_41 () Bool)
(declare-fun z_0_41 () Bool)
(declare-fun z_2_42 () Bool)
(declare-fun z_5_42 () Bool)
(declare-fun z_0_42 () Bool)
(declare-fun z_2_43 () Bool)
(declare-fun z_5_43 () Bool)
(declare-fun z_0_43 () Bool)
(declare-fun z_2_44 () Bool)
(declare-fun z_5_44 () Bool)
(declare-fun z_2_45 () Bool)
(declare-fun z_5_45 () Bool)
(declare-fun z_0_45 () Bool)
(declare-fun z_2_46 () Bool)
(declare-fun z_5_46 () Bool)
(declare-fun z_0_46 () Bool)
(declare-fun z_2_47 () Bool)
(declare-fun z_5_47 () Bool)
(declare-fun z_0_47 () Bool)
(declare-fun z_2_48 () Bool)
(declare-fun z_5_48 () Bool)
(declare-fun z_0_48 () Bool)
(declare-fun z_2_49 () Bool)
(declare-fun z_5_49 () Bool)
(declare-fun z_0_49 () Bool)
(declare-fun z_2_50 () Bool)
(declare-fun z_5_50 () Bool)
(declare-fun z_0_50 () Bool)
(declare-fun z_2_51 () Bool)
(declare-fun z_5_51 () Bool)
(declare-fun z_2_52 () Bool)
(declare-fun z_5_52 () Bool)
(declare-fun z_0_52 () Bool)
(declare-fun z_2_53 () Bool)
(declare-fun z_5_53 () Bool)
(declare-fun z_0_53 () Bool)
(declare-fun z_2_54 () Bool)
(declare-fun z_5_54 () Bool)
(declare-fun z_0_54 () Bool)
(declare-fun z_2_55 () Bool)
(declare-fun z_5_55 () Bool)
(declare-fun z_0_55 () Bool)
(declare-fun z_2_56 () Bool)
(declare-fun z_5_56 () Bool)
(declare-fun z_0_56 () Bool)
(declare-fun z_2_57 () Bool)
(declare-fun z_5_57 () Bool)
(declare-fun z_0_57 () Bool)
(declare-fun z_2_58 () Bool)
(declare-fun z_5_58 () Bool)
(declare-fun z_2_59 () Bool)
(declare-fun z_5_59 () Bool)
(declare-fun z_0_59 () Bool)
(declare-fun z_2_60 () Bool)
(declare-fun z_5_60 () Bool)
(declare-fun z_0_60 () Bool)
(declare-fun z_2_61 () Bool)
(declare-fun z_5_61 () Bool)
(declare-fun z_0_61 () Bool)
(declare-fun z_2_62 () Bool)
(declare-fun z_5_62 () Bool)
(declare-fun z_2_63 () Bool)
(declare-fun z_5_63 () Bool)
(declare-fun z_0_63 () Bool)
(declare-fun z_2_64 () Bool)
(declare-fun z_5_64 () Bool)
(declare-fun z_0_64 () Bool)
(declare-fun z_2_65 () Bool)
(declare-fun z_5_65 () Bool)
(declare-fun z_0_65 () Bool)
(declare-fun z_2_66 () Bool)
(declare-fun z_5_66 () Bool)
(declare-fun z_0_66 () Bool)
(declare-fun z_2_67 () Bool)
(declare-fun z_5_67 () Bool)
(declare-fun z_0_67 () Bool)
(declare-fun z_2_68 () Bool)
(declare-fun z_5_68 () Bool)
(declare-fun z_2_69 () Bool)
(declare-fun z_5_69 () Bool)
(declare-fun z_0_69 () Bool)
(declare-fun z_2_70 () Bool)
(declare-fun z_5_70 () Bool)
(declare-fun z_0_70 () Bool)
(declare-fun z_2_71 () Bool)
(declare-fun z_5_71 () Bool)
(declare-fun z_2_72 () Bool)
(declare-fun z_5_72 () Bool)
(declare-fun z_0_72 () Bool)
(declare-fun z_2_73 () Bool)
(declare-fun z_5_73 () Bool)
(declare-fun z_0_73 () Bool)
(declare-fun z_2_74 () Bool)
(declare-fun z_5_74 () Bool)
(declare-fun z_0_74 () Bool)
(declare-fun z_2_75 () Bool)
(declare-fun z_5_75 () Bool)
(declare-fun z_2_76 () Bool)
(declare-fun z_5_76 () Bool)
(declare-fun z_0_76 () Bool)
(declare-fun z_2_77 () Bool)
(declare-fun z_5_77 () Bool)
(declare-fun z_0_77 () Bool)
(declare-fun z_2_78 () Bool)
(declare-fun z_5_78 () Bool)
(declare-fun z_2_79 () Bool)
(declare-fun z_5_79 () Bool)
(declare-fun z_0_79 () Bool)
(declare-fun z_2_80 () Bool)
(declare-fun z_5_80 () Bool)
(declare-fun z_0_80 () Bool)
(declare-fun z_2_81 () Bool)
(declare-fun z_5_81 () Bool)
(declare-fun z_0_81 () Bool)
(declare-fun z_3_0 () Bool)
(declare-fun z_4_0 () Bool)
(declare-fun z_3_1 () Bool)
(declare-fun z_4_1 () Bool)
(declare-fun z_3_2 () Bool)
(declare-fun z_4_2 () Bool)
(declare-fun z_3_3 () Bool)
(declare-fun z_4_3 () Bool)
(declare-fun z_3_4 () Bool)
(declare-fun z_4_4 () Bool)
(declare-fun z_3_5 () Bool)
(declare-fun z_4_5 () Bool)
(declare-fun z_3_6 () Bool)
(declare-fun z_4_6 () Bool)
(declare-fun z_3_7 () Bool)
(declare-fun z_4_7 () Bool)
(declare-fun z_3_8 () Bool)
(declare-fun z_4_8 () Bool)
(declare-fun z_3_9 () Bool)
(declare-fun z_4_9 () Bool)
(declare-fun z_3_10 () Bool)
(declare-fun z_4_10 () Bool)
(declare-fun z_3_11 () Bool)
(declare-fun z_4_11 () Bool)
(declare-fun z_3_12 () Bool)
(declare-fun z_4_12 () Bool)
(declare-fun z_3_13 () Bool)
(declare-fun z_4_13 () Bool)
(declare-fun z_3_14 () Bool)
(declare-fun z_4_14 () Bool)
(declare-fun z_3_15 () Bool)
(declare-fun z_4_15 () Bool)
(declare-fun z_3_16 () Bool)
(declare-fun z_4_16 () Bool)
(declare-fun z_3_17 () Bool)
(declare-fun z_4_17 () Bool)
(declare-fun z_3_18 () Bool)
(declare-fun z_4_18 () Bool)
(declare-fun z_3_19 () Bool)
(declare-fun z_4_19 () Bool)
(declare-fun z_3_20 () Bool)
(declare-fun z_4_20 () Bool)
(declare-fun z_3_21 () Bool)
(declare-fun z_4_21 () Bool)
(declare-fun z_3_22 () Bool)
(declare-fun z_4_22 () Bool)
(declare-fun z_3_23 () Bool)
(declare-fun z_4_23 () Bool)
(declare-fun z_3_24 () Bool)
(declare-fun z_4_24 () Bool)
(declare-fun z_4_25 () Bool)
(declare-fun z_3_26 () Bool)
(declare-fun z_4_26 () Bool)
(declare-fun z_3_27 () Bool)
(declare-fun z_4_27 () Bool)
(declare-fun z_3_28 () Bool)
(declare-fun z_4_28 () Bool)
(declare-fun z_3_29 () Bool)
(declare-fun z_4_29 () Bool)
(declare-fun z_3_30 () Bool)
(declare-fun z_4_30 () Bool)
(declare-fun z_3_31 () Bool)
(declare-fun z_4_31 () Bool)
(declare-fun z_3_32 () Bool)
(declare-fun z_4_32 () Bool)
(declare-fun z_3_33 () Bool)
(declare-fun z_4_33 () Bool)
(declare-fun z_3_34 () Bool)
(declare-fun z_4_34 () Bool)
(declare-fun z_3_35 () Bool)
(declare-fun z_4_35 () Bool)
(declare-fun z_3_36 () Bool)
(declare-fun z_4_36 () Bool)
(declare-fun z_3_37 () Bool)
(declare-fun z_4_37 () Bool)
(declare-fun z_3_38 () Bool)
(declare-fun z_4_38 () Bool)
(declare-fun z_3_39 () Bool)
(declare-fun z_4_39 () Bool)
(declare-fun z_3_40 () Bool)
(declare-fun z_4_40 () Bool)
(declare-fun z_3_41 () Bool)
(declare-fun z_4_41 () Bool)
(declare-fun z_3_42 () Bool)
(declare-fun z_4_42 () Bool)
(declare-fun z_3_43 () Bool)
(declare-fun z_4_43 () Bool)
(declare-fun z_3_44 () Bool)
(declare-fun z_4_44 () Bool)
(declare-fun z_3_45 () Bool)
(declare-fun z_4_45 () Bool)
(declare-fun z_3_46 () Bool)
(declare-fun z_4_46 () Bool)
(declare-fun z_3_47 () Bool)
(declare-fun z_4_47 () Bool)
(declare-fun z_3_48 () Bool)
(declare-fun z_4_48 () Bool)
(declare-fun z_3_49 () Bool)
(declare-fun z_4_49 () Bool)
(declare-fun z_3_50 () Bool)
(declare-fun z_4_50 () Bool)
(declare-fun z_3_51 () Bool)
(declare-fun z_4_51 () Bool)
(declare-fun z_3_52 () Bool)
(declare-fun z_4_52 () Bool)
(declare-fun z_3_53 () Bool)
(declare-fun z_4_53 () Bool)
(declare-fun z_3_54 () Bool)
(declare-fun z_4_54 () Bool)
(declare-fun z_3_55 () Bool)
(declare-fun z_4_55 () Bool)
(declare-fun z_3_56 () Bool)
(declare-fun z_4_56 () Bool)
(declare-fun z_3_57 () Bool)
(declare-fun z_4_57 () Bool)
(declare-fun z_3_58 () Bool)
(declare-fun z_4_58 () Bool)
(declare-fun z_3_59 () Bool)
(declare-fun z_4_59 () Bool)
(declare-fun z_3_60 () Bool)
(declare-fun z_4_60 () Bool)
(declare-fun z_3_61 () Bool)
(declare-fun z_4_61 () Bool)
(declare-fun z_3_62 () Bool)
(declare-fun z_4_62 () Bool)
(declare-fun z_3_63 () Bool)
(declare-fun z_4_63 () Bool)
(declare-fun z_3_64 () Bool)
(declare-fun z_4_64 () Bool)
(declare-fun z_3_65 () Bool)
(declare-fun z_4_65 () Bool)
(declare-fun z_3_66 () Bool)
(declare-fun z_4_66 () Bool)
(declare-fun z_3_67 () Bool)
(declare-fun z_4_67 () Bool)
(declare-fun z_3_68 () Bool)
(declare-fun z_4_68 () Bool)
(declare-fun z_3_69 () Bool)
(declare-fun z_4_69 () Bool)
(declare-fun z_3_70 () Bool)
(declare-fun z_4_70 () Bool)
(declare-fun z_3_71 () Bool)
(declare-fun z_4_71 () Bool)
(declare-fun z_3_72 () Bool)
(declare-fun z_4_72 () Bool)
(declare-fun z_3_73 () Bool)
(declare-fun z_4_73 () Bool)
(declare-fun z_3_74 () Bool)
(declare-fun z_4_74 () Bool)
(declare-fun z_3_75 () Bool)
(declare-fun z_4_75 () Bool)
(declare-fun z_3_76 () Bool)
(declare-fun z_4_76 () Bool)
(declare-fun z_3_77 () Bool)
(declare-fun z_4_77 () Bool)
(declare-fun z_3_78 () Bool)
(declare-fun z_4_78 () Bool)
(declare-fun z_3_79 () Bool)
(declare-fun z_4_79 () Bool)
(declare-fun z_3_80 () Bool)
(declare-fun z_4_80 () Bool)
(declare-fun z_3_81 () Bool)
(declare-fun z_4_81 () Bool)
(declare-fun z_3_25 () Bool)
(declare-fun x_5_q () Bool)
(declare-fun x_5_p () Bool)
(declare-fun x_5_-> () Bool)
(declare-fun x_5_U () Bool)
(declare-fun x_5_v () Bool)
(declare-fun x_5_& () Bool)
(declare-fun x_5_X () Bool)
(declare-fun x_5_! () Bool)
(declare-fun x_5_F () Bool)
(declare-fun x_5_G () Bool)
(assert
 z_0_0)
(assert
 z_0_2)
(assert
 z_0_7)
(assert
 z_0_13)
(assert
 z_0_19)
(assert
 z_0_23)
(assert
 z_0_26)
(assert
 z_0_27)
(assert
 z_0_30)
(assert
 z_0_31)
(assert
 (not z_0_32))
(assert
 (not z_0_38))
(assert
 (not z_0_44))
(assert
 (not z_0_51))
(assert
 (not z_0_58))
(assert
 (not z_0_62))
(assert
 (not z_0_68))
(assert
 (not z_0_71))
(assert
 (not z_0_75))
(assert
 (not z_0_78))
(assert
 (= z_0_0 (=> z_5_0 z_2_0)))
(assert
 (= z_0_1 (=> z_5_1 z_2_1)))
(assert
 (= z_0_2 (=> z_5_2 z_2_2)))
(assert
 (= z_0_3 (=> z_5_3 z_2_3)))
(assert
 (= z_0_4 (=> z_5_4 z_2_4)))
(assert
 (= z_0_5 (=> z_5_5 z_2_5)))
(assert
 (= z_0_6 (=> z_5_6 z_2_6)))
(assert
 (= z_0_7 (=> z_5_7 z_2_7)))
(assert
 (= z_0_8 (=> z_5_8 z_2_8)))
(assert
 (= z_0_9 (=> z_5_9 z_2_9)))
(assert
 (= z_0_10 (=> z_5_10 z_2_10)))
(assert
 (= z_0_11 (=> z_5_11 z_2_11)))
(assert
 (= z_0_12 (=> z_5_12 z_2_12)))
(assert
 (= z_0_13 (=> z_5_13 z_2_13)))
(assert
 (= z_0_14 (=> z_5_14 z_2_14)))
(assert
 (= z_0_15 (=> z_5_15 z_2_15)))
(assert
 (= z_0_16 (=> z_5_16 z_2_16)))
(assert
 (= z_0_17 (=> z_5_17 z_2_17)))
(assert
 (= z_0_18 (=> z_5_18 z_2_18)))
(assert
 (= z_0_19 (=> z_5_19 z_2_19)))
(assert
 (= z_0_20 (=> z_5_20 z_2_20)))
(assert
 (= z_0_21 (=> z_5_21 z_2_21)))
(assert
 (= z_0_22 (=> z_5_22 z_2_22)))
(assert
 (= z_0_23 (=> z_5_23 z_2_23)))
(assert
 (= z_0_24 (=> z_5_24 z_2_24)))
(assert
 (= z_0_25 (=> z_5_25 z_2_25)))
(assert
 (= z_0_26 (=> z_5_26 z_2_26)))
(assert
 (= z_0_27 (=> z_5_27 z_2_27)))
(assert
 (= z_0_28 (=> z_5_28 z_2_28)))
(assert
 (= z_0_29 (=> z_5_29 z_2_29)))
(assert
 (= z_0_30 (=> z_5_30 z_2_30)))
(assert
 (= z_0_31 (=> z_5_31 z_2_31)))
(assert
 (= z_0_32 (=> z_5_32 z_2_32)))
(assert
 (= z_0_33 (=> z_5_33 z_2_33)))
(assert
 (= z_0_34 (=> z_5_34 z_2_34)))
(assert
 (= z_0_35 (=> z_5_35 z_2_35)))
(assert
 (= z_0_36 (=> z_5_36 z_2_36)))
(assert
 (= z_0_37 (=> z_5_37 z_2_37)))
(assert
 (= z_0_38 (=> z_5_38 z_2_38)))
(assert
 (= z_0_39 (=> z_5_39 z_2_39)))
(assert
 (= z_0_40 (=> z_5_40 z_2_40)))
(assert
 (= z_0_41 (=> z_5_41 z_2_41)))
(assert
 (= z_0_42 (=> z_5_42 z_2_42)))
(assert
 (= z_0_43 (=> z_5_43 z_2_43)))
(assert
 (= z_0_44 (=> z_5_44 z_2_44)))
(assert
 (= z_0_45 (=> z_5_45 z_2_45)))
(assert
 (= z_0_46 (=> z_5_46 z_2_46)))
(assert
 (= z_0_47 (=> z_5_47 z_2_47)))
(assert
 (= z_0_48 (=> z_5_48 z_2_48)))
(assert
 (= z_0_49 (=> z_5_49 z_2_49)))
(assert
 (= z_0_50 (=> z_5_50 z_2_50)))
(assert
 (= z_0_51 (=> z_5_51 z_2_51)))
(assert
 (= z_0_52 (=> z_5_52 z_2_52)))
(assert
 (= z_0_53 (=> z_5_53 z_2_53)))
(assert
 (= z_0_54 (=> z_5_54 z_2_54)))
(assert
 (= z_0_55 (=> z_5_55 z_2_55)))
(assert
 (= z_0_56 (=> z_5_56 z_2_56)))
(assert
 (= z_0_57 (=> z_5_57 z_2_57)))
(assert
 (= z_0_58 (=> z_5_58 z_2_58)))
(assert
 (= z_0_59 (=> z_5_59 z_2_59)))
(assert
 (= z_0_60 (=> z_5_60 z_2_60)))
(assert
 (= z_0_61 (=> z_5_61 z_2_61)))
(assert
 (= z_0_62 (=> z_5_62 z_2_62)))
(assert
 (= z_0_63 (=> z_5_63 z_2_63)))
(assert
 (= z_0_64 (=> z_5_64 z_2_64)))
(assert
 (= z_0_65 (=> z_5_65 z_2_65)))
(assert
 (= z_0_66 (=> z_5_66 z_2_66)))
(assert
 (= z_0_67 (=> z_5_67 z_2_67)))
(assert
 (= z_0_68 (=> z_5_68 z_2_68)))
(assert
 (= z_0_69 (=> z_5_69 z_2_69)))
(assert
 (= z_0_70 (=> z_5_70 z_2_70)))
(assert
 (= z_0_71 (=> z_5_71 z_2_71)))
(assert
 (= z_0_72 (=> z_5_72 z_2_72)))
(assert
 (= z_0_73 (=> z_5_73 z_2_73)))
(assert
 (= z_0_74 (=> z_5_74 z_2_74)))
(assert
 (= z_0_75 (=> z_5_75 z_2_75)))
(assert
 (= z_0_76 (=> z_5_76 z_2_76)))
(assert
 (= z_0_77 (=> z_5_77 z_2_77)))
(assert
 (= z_0_78 (=> z_5_78 z_2_78)))
(assert
 (= z_0_79 (=> z_5_79 z_2_79)))
(assert
 (= z_0_80 (=> z_5_80 z_2_80)))
(assert
 (= z_0_81 (=> z_5_81 z_2_81)))
(assert
 (= z_2_0 (or z_4_0 (and z_3_0 z_2_1))))
(assert
 (= z_2_1 (or z_4_1 (and z_3_1 z_2_2))))
(assert
 (= z_2_2 (or z_4_2 (and z_3_2 z_2_3))))
(assert
 (= z_2_3 (or z_4_3 (and z_3_3 z_2_4))))
(assert
 (= z_2_4 (or z_4_4 (and z_3_4 z_2_5))))
(assert
 (= z_2_5 (or z_4_5 (and z_3_5 z_2_6))))
(assert
 (= z_2_6 (or (and z_4_6) (and z_4_4 z_3_6) (and z_4_5 z_3_6 z_3_4))))
(assert
 (= z_2_7 (or z_4_7 (and z_3_7 z_2_8))))
(assert
 (= z_2_8 (or z_4_8 (and z_3_8 z_2_9))))
(assert
 (= z_2_9 (or z_4_9 (and z_3_9 z_2_10))))
(assert
 (= z_2_10 (or z_4_10 (and z_3_10 z_2_11))))
(assert
 (= z_2_11 (or z_4_11 (and z_3_11 z_2_12))))
(assert
 (let (($x748 (and z_4_11 z_3_12 z_3_9 z_3_10)))
 (let (($x747 (and z_4_10 z_3_12 z_3_9)))
 (let (($x746 (and z_4_9 z_3_12)))
 (= z_2_12 (or (and z_4_12) $x746 $x747 $x748))))))
(assert
 (= z_2_13 (or z_4_13 (and z_3_13 z_2_14))))
(assert
 (= z_2_14 (or z_4_14 (and z_3_14 z_2_15))))
(assert
 (= z_2_15 (or z_4_15 (and z_3_15 z_2_16))))
(assert
 (= z_2_16 (or z_4_16 (and z_3_16 z_2_17))))
(assert
 (= z_2_17 (or z_4_17 (and z_3_17 z_2_18))))
(assert
 (let (($x783 (and z_4_17 z_3_18 z_3_15 z_3_16)))
 (let (($x782 (and z_4_16 z_3_18 z_3_15)))
 (let (($x781 (and z_4_15 z_3_18)))
 (= z_2_18 (or (and z_4_18) $x781 $x782 $x783))))))
(assert
 (= z_2_19 (or z_4_19 (and z_3_19 z_2_20))))
(assert
 (= z_2_20 (or z_4_20 (and z_3_20 z_2_21))))
(assert
 (= z_2_21 (or z_4_21 (and z_3_21 z_2_22))))
(assert
 (= z_2_22 (or (and z_4_22) (and z_4_21 z_3_22))))
(assert
 (= z_2_23 (or z_4_23 (and z_3_23 z_2_24))))
(assert
 (= z_2_24 (or z_4_24 (and z_3_24 z_2_25))))
(assert
 (= z_2_25 (or (and z_4_25))))
(assert
 (= z_2_26 (or z_4_26 (and z_3_26 z_2_2))))
(assert
 (= z_2_27 (or z_4_27 (and z_3_27 z_2_28))))
(assert
 (= z_2_28 (or z_4_28 (and z_3_28 z_2_29))))
(assert
 (= z_2_29 (or z_4_29 (and z_3_29 z_2_26))))
(assert
 (= z_2_30 (or z_4_30 (and z_3_30 z_2_14))))
(assert
 (= z_2_31 (or z_4_31 (and z_3_31 z_2_3))))
(assert
 (= z_2_32 (or z_4_32 (and z_3_32 z_2_33))))
(assert
 (= z_2_33 (or z_4_33 (and z_3_33 z_2_34))))
(assert
 (= z_2_34 (or z_4_34 (and z_3_34 z_2_35))))
(assert
 (= z_2_35 (or z_4_35 (and z_3_35 z_2_36))))
(assert
 (= z_2_36 (or z_4_36 (and z_3_36 z_2_37))))
(assert
 (let (($x885 (and z_4_36 z_3_37 z_3_35)))
 (let (($x884 (and z_4_35 z_3_37)))
 (= z_2_37 (or (and z_4_37) $x884 $x885)))))
(assert
 (= z_2_38 (or z_4_38 (and z_3_38 z_2_39))))
(assert
 (= z_2_39 (or z_4_39 (and z_3_39 z_2_40))))
(assert
 (= z_2_40 (or z_4_40 (and z_3_40 z_2_41))))
(assert
 (= z_2_41 (or z_4_41 (and z_3_41 z_2_42))))
(assert
 (= z_2_42 (or z_4_42 (and z_3_42 z_2_43))))
(assert
 (let (($x920 (and z_4_42 z_3_43 z_3_40 z_3_41)))
 (let (($x919 (and z_4_41 z_3_43 z_3_40)))
 (let (($x918 (and z_4_40 z_3_43)))
 (= z_2_43 (or (and z_4_43) $x918 $x919 $x920))))))
(assert
 (= z_2_44 (or z_4_44 (and z_3_44 z_2_45))))
(assert
 (= z_2_45 (or z_4_45 (and z_3_45 z_2_46))))
(assert
 (= z_2_46 (or z_4_46 (and z_3_46 z_2_47))))
(assert
 (= z_2_47 (or z_4_47 (and z_3_47 z_2_48))))
(assert
 (= z_2_48 (or z_4_48 (and z_3_48 z_2_49))))
(assert
 (= z_2_49 (or z_4_49 (and z_3_49 z_2_50))))
(assert
 (let (($x959 (and z_4_49 z_3_50 z_3_48)))
 (let (($x958 (and z_4_48 z_3_50)))
 (= z_2_50 (or (and z_4_50) $x958 $x959)))))
(assert
 (= z_2_51 (or z_4_51 (and z_3_51 z_2_52))))
(assert
 (= z_2_52 (or z_4_52 (and z_3_52 z_2_53))))
(assert
 (= z_2_53 (or z_4_53 (and z_3_53 z_2_54))))
(assert
 (= z_2_54 (or z_4_54 (and z_3_54 z_2_55))))
(assert
 (= z_2_55 (or z_4_55 (and z_3_55 z_2_56))))
(assert
 (= z_2_56 (or z_4_56 (and z_3_56 z_2_57))))
(assert
 (let (($x999 (and z_4_56 z_3_57 z_3_54 z_3_55)))
 (let (($x998 (and z_4_55 z_3_57 z_3_54)))
 (let (($x997 (and z_4_54 z_3_57)))
 (= z_2_57 (or (and z_4_57) $x997 $x998 $x999))))))
(assert
 (= z_2_58 (or z_4_58 (and z_3_58 z_2_59))))
(assert
 (= z_2_59 (or z_4_59 (and z_3_59 z_2_60))))
(assert
 (= z_2_60 (or z_4_60 (and z_3_60 z_2_61))))
(assert
 (let (($x1024 (and z_4_60 z_3_61 z_3_58 z_3_59)))
 (let (($x1023 (and z_4_59 z_3_61 z_3_58)))
 (let (($x1022 (and z_4_58 z_3_61)))
 (= z_2_61 (or (and z_4_61) $x1022 $x1023 $x1024))))))
(assert
 (= z_2_62 (or z_4_62 (and z_3_62 z_2_63))))
(assert
 (= z_2_63 (or z_4_63 (and z_3_63 z_2_64))))
(assert
 (= z_2_64 (or z_4_64 (and z_3_64 z_2_65))))
(assert
 (= z_2_65 (or z_4_65 (and z_3_65 z_2_66))))
(assert
 (= z_2_66 (or z_4_66 (and z_3_66 z_2_67))))
(assert
 (let (($x1058 (and z_4_66 z_3_67 z_3_65)))
 (let (($x1057 (and z_4_65 z_3_67)))
 (= z_2_67 (or (and z_4_67) $x1057 $x1058)))))
(assert
 (= z_2_68 (or z_4_68 (and z_3_68 z_2_69))))
(assert
 (= z_2_69 (or z_4_69 (and z_3_69 z_2_70))))
(assert
 (= z_2_70 (or z_4_70 (and z_3_70 z_2_11))))
(assert
 (= z_2_71 (or z_4_71 (and z_3_71 z_2_72))))
(assert
 (= z_2_72 (or z_4_72 (and z_3_72 z_2_73))))
(assert
 (= z_2_73 (or z_4_73 (and z_3_73 z_2_74))))
(assert
 (= z_2_74 (or (and z_4_74) (and z_4_73 z_3_74))))
(assert
 (= z_2_75 (or z_4_75 (and z_3_75 z_2_76))))
(assert
 (= z_2_76 (or z_4_76 (and z_3_76 z_2_77))))
(assert
 (= z_2_77 (or z_4_77 (and z_3_77 z_2_6))))
(assert
 (= z_2_78 (or z_4_78 (and z_3_78 z_2_79))))
(assert
 (= z_2_79 (or z_4_79 (and z_3_79 z_2_80))))
(assert
 (= z_2_80 (or z_4_80 (and z_3_80 z_2_81))))
(assert
 (= z_2_81 (or z_4_81 (and z_3_81 z_2_37))))
(assert
 z_3_0)
(assert
 (not z_3_1))
(assert
 (not z_3_2))
(assert
 z_3_3)
(assert
 z_3_4)
(assert
 (not z_3_5))
(assert
 (not z_3_6))
(assert
 z_3_7)
(assert
 (not z_3_8))
(assert
 (not z_3_9))
(assert
 (not z_3_10))
(assert
 z_3_11)
(assert
 z_3_12)
(assert
 z_3_13)
(assert
 (not z_3_14))
(assert
 (not z_3_15))
(assert
 z_3_16)
(assert
 z_3_17)
(assert
 z_3_18)
(assert
 z_3_19)
(assert
 (not z_3_20))
(assert
 (not z_3_21))
(assert
 z_3_22)
(assert
 z_3_23)
(assert
 (not z_3_24))
(assert
 z_3_25)
(assert
 (not z_3_26))
(assert
 (not z_3_27))
(assert
 (not z_3_28))
(assert
 z_3_29)
(assert
 (not z_3_30))
(assert
 z_3_31)
(assert
 z_3_32)
(assert
 (not z_3_33))
(assert
 z_3_34)
(assert
 z_3_35)
(assert
 (not z_3_36))
(assert
 (not z_3_37))
(assert
 z_3_38)
(assert
 (not z_3_39))
(assert
 z_3_40)
(assert
 (not z_3_41))
(assert
 z_3_42)
(assert
 z_3_43)
(assert
 (not z_3_44))
(assert
 (not z_3_45))
(assert
 (not z_3_46))
(assert
 z_3_47)
(assert
 (not z_3_48))
(assert
 z_3_49)
(assert
 z_3_50)
(assert
 z_3_51)
(assert
 (not z_3_52))
(assert
 (not z_3_53))
(assert
 (not z_3_54))
(assert
 z_3_55)
(assert
 (not z_3_56))
(assert
 z_3_57)
(assert
 (not z_3_58))
(assert
 (not z_3_59))
(assert
 z_3_60)
(assert
 z_3_61)
(assert
 z_3_62)
(assert
 (not z_3_63))
(assert
 (not z_3_64))
(assert
 z_3_65)
(assert
 (not z_3_66))
(assert
 z_3_67)
(assert
 (not z_3_68))
(assert
 z_3_69)
(assert
 (not z_3_70))
(assert
 (not z_3_71))
(assert
 (not z_3_72))
(assert
 (not z_3_73))
(assert
 z_3_74)
(assert
 z_3_75)
(assert
 (not z_3_76))
(assert
 z_3_77)
(assert
 z_3_78)
(assert
 z_3_79)
(assert
 (not z_3_80))
(assert
 z_3_81)
(assert
 (not z_4_0))
(assert
 (not z_4_1))
(assert
 (not z_4_2))
(assert
 (not z_4_3))
(assert
 (not z_4_4))
(assert
 (not z_4_5))
(assert
 (not z_4_6))
(assert
 (not z_4_7))
(assert
 (not z_4_8))
(assert
 (not z_4_9))
(assert
 (not z_4_10))
(assert
 (not z_4_11))
(assert
 (not z_4_12))
(assert
 (not z_4_13))
(assert
 (not z_4_14))
(assert
 (not z_4_15))
(assert
 (not z_4_16))
(assert
 (not z_4_17))
(assert
 (not z_4_18))
(assert
 (not z_4_19))
(assert
 (not z_4_20))
(assert
 (not z_4_21))
(assert
 (not z_4_22))
(assert
 (not z_4_23))
(assert
 (not z_4_24))
(assert
 (not z_4_25))
(assert
 (not z_4_26))
(assert
 (not z_4_27))
(assert
 (not z_4_28))
(assert
 (not z_4_29))
(assert
 (not z_4_30))
(assert
 (not z_4_31))
(assert
 (not z_4_32))
(assert
 (not z_4_33))
(assert
 z_4_34)
(assert
 z_4_35)
(assert
 (not z_4_36))
(assert
 z_4_37)
(assert
 (not z_4_38))
(assert
 (not z_4_39))
(assert
 z_4_40)
(assert
 (not z_4_41))
(assert
 (not z_4_42))
(assert
 z_4_43)
(assert
 (not z_4_44))
(assert
 (not z_4_45))
(assert
 (not z_4_46))
(assert
 z_4_47)
(assert
 z_4_48)
(assert
 (not z_4_49))
(assert
 (not z_4_50))
(assert
 (not z_4_51))
(assert
 (not z_4_52))
(assert
 z_4_53)
(assert
 (not z_4_54))
(assert
 z_4_55)
(assert
 z_4_56)
(assert
 (not z_4_57))
(assert
 (not z_4_58))
(assert
 z_4_59)
(assert
 (not z_4_60))
(assert
 (not z_4_61))
(assert
 (not z_4_62))
(assert
 (not z_4_63))
(assert
 z_4_64)
(assert
 z_4_65)
(assert
 (not z_4_66))
(assert
 (not z_4_67))
(assert
 (not z_4_68))
(assert
 z_4_69)
(assert
 z_4_70)
(assert
 (not z_4_71))
(assert
 z_4_72)
(assert
 z_4_73)
(assert
 z_4_74)
(assert
 (not z_4_75))
(assert
 (not z_4_76))
(assert
 z_4_77)
(assert
 (not z_4_78))
(assert
 (not z_4_79))
(assert
 (not z_4_80))
(assert
 z_4_81)
(assert
 (let (($x1366 (not x_5_q)))
 (let (($x1370 (not x_5_p)))
 (let (($x1359 (or $x1370 $x1366)))
 (and $x1359)))))
(assert
 (and true true))
(assert
 (=> x_5_p z_5_0))
(assert
 (let (($x1890 (not z_5_1)))
 (=> x_5_p $x1890)))
(assert
 (let (($x1838 (not z_5_2)))
 (=> x_5_p $x1838)))
(assert
 (=> x_5_p z_5_3))
(assert
 (=> x_5_p z_5_4))
(assert
 (let (($x1679 (not z_5_5)))
 (=> x_5_p $x1679)))
(assert
 (let (($x1626 (not z_5_6)))
 (=> x_5_p $x1626)))
(assert
 (=> x_5_p z_5_7))
(assert
 (let (($x1520 (not z_5_8)))
 (=> x_5_p $x1520)))
(assert
 (let (($x1466 (not z_5_9)))
 (=> x_5_p $x1466)))
(assert
 (let (($x1412 (not z_5_10)))
 (=> x_5_p $x1412)))
(assert
 (=> x_5_p z_5_11))
(assert
 (=> x_5_p z_5_12))
(assert
 (=> x_5_p z_5_13))
(assert
 (let (($x1972 (not z_5_14)))
 (=> x_5_p $x1972)))
(assert
 (let (($x1963 (not z_5_15)))
 (=> x_5_p $x1963)))
(assert
 (=> x_5_p z_5_16))
(assert
 (=> x_5_p z_5_17))
(assert
 (=> x_5_p z_5_18))
(assert
 (=> x_5_p z_5_19))
(assert
 (let (($x1920 (not z_5_20)))
 (=> x_5_p $x1920)))
(assert
 (let (($x1911 (not z_5_21)))
 (=> x_5_p $x1911)))
(assert
 (=> x_5_p z_5_22))
(assert
 (=> x_5_p z_5_23))
(assert
 (let (($x1885 (not z_5_24)))
 (=> x_5_p $x1885)))
(assert
 (=> x_5_p z_5_25))
(assert
 (let (($x1867 (not z_5_26)))
 (=> x_5_p $x1867)))
(assert
 (let (($x1859 (not z_5_27)))
 (=> x_5_p $x1859)))
(assert
 (let (($x1850 (not z_5_28)))
 (=> x_5_p $x1850)))
(assert
 (=> x_5_p z_5_29))
(assert
 (let (($x1832 (not z_5_30)))
 (=> x_5_p $x1832)))
(assert
 (=> x_5_p z_5_31))
(assert
 (=> x_5_p z_5_32))
(assert
 (let (($x1806 (not z_5_33)))
 (=> x_5_p $x1806)))
(assert
 (=> x_5_p z_5_34))
(assert
 (=> x_5_p z_5_35))
(assert
 (let (($x1779 (not z_5_36)))
 (=> x_5_p $x1779)))
(assert
 (let (($x1771 (not z_5_37)))
 (=> x_5_p $x1771)))
(assert
 (=> x_5_p z_5_38))
(assert
 (let (($x1753 (not z_5_39)))
 (=> x_5_p $x1753)))
(assert
 (=> x_5_p z_5_40))
(assert
 (let (($x1735 (not z_5_41)))
 (=> x_5_p $x1735)))
(assert
 (=> x_5_p z_5_42))
(assert
 (=> x_5_p z_5_43))
(assert
 (let (($x1709 (not z_5_44)))
 (=> x_5_p $x1709)))
(assert
 (let (($x1700 (not z_5_45)))
 (=> x_5_p $x1700)))
(assert
 (let (($x1691 (not z_5_46)))
 (=> x_5_p $x1691)))
(assert
 (=> x_5_p z_5_47))
(assert
 (let (($x1673 (not z_5_48)))
 (=> x_5_p $x1673)))
(assert
 (=> x_5_p z_5_49))
(assert
 (=> x_5_p z_5_50))
(assert
 (=> x_5_p z_5_51))
(assert
 (let (($x1638 (not z_5_52)))
 (=> x_5_p $x1638)))
(assert
 (let (($x1629 (not z_5_53)))
 (=> x_5_p $x1629)))
(assert
 (let (($x1620 (not z_5_54)))
 (=> x_5_p $x1620)))
(assert
 (=> x_5_p z_5_55))
(assert
 (let (($x1602 (not z_5_56)))
 (=> x_5_p $x1602)))
(assert
 (=> x_5_p z_5_57))
(assert
 (let (($x1585 (not z_5_58)))
 (=> x_5_p $x1585)))
(assert
 (let (($x1576 (not z_5_59)))
 (=> x_5_p $x1576)))
(assert
 (=> x_5_p z_5_60))
(assert
 (=> x_5_p z_5_61))
(assert
 (=> x_5_p z_5_62))
(assert
 (let (($x1541 (not z_5_63)))
 (=> x_5_p $x1541)))
(assert
 (let (($x1532 (not z_5_64)))
 (=> x_5_p $x1532)))
(assert
 (=> x_5_p z_5_65))
(assert
 (let (($x1514 (not z_5_66)))
 (=> x_5_p $x1514)))
(assert
 (=> x_5_p z_5_67))
(assert
 (let (($x1496 (not z_5_68)))
 (=> x_5_p $x1496)))
(assert
 (=> x_5_p z_5_69))
(assert
 (let (($x1478 (not z_5_70)))
 (=> x_5_p $x1478)))
(assert
 (let (($x1469 (not z_5_71)))
 (=> x_5_p $x1469)))
(assert
 (let (($x1460 (not z_5_72)))
 (=> x_5_p $x1460)))
(assert
 (let (($x1451 (not z_5_73)))
 (=> x_5_p $x1451)))
(assert
 (=> x_5_p z_5_74))
(assert
 (=> x_5_p z_5_75))
(assert
 (let (($x1424 (not z_5_76)))
 (=> x_5_p $x1424)))
(assert
 (=> x_5_p z_5_77))
(assert
 (=> x_5_p z_5_78))
(assert
 (=> x_5_p z_5_79))
(assert
 (let (($x1388 (not z_5_80)))
 (=> x_5_p $x1388)))
(assert
 (=> x_5_p z_5_81))
(assert
 (let (($x1943 (not z_5_0)))
 (=> x_5_q $x1943)))
(assert
 (let (($x1890 (not z_5_1)))
 (=> x_5_q $x1890)))
(assert
 (let (($x1838 (not z_5_2)))
 (=> x_5_q $x1838)))
(assert
 (let (($x1785 (not z_5_3)))
 (=> x_5_q $x1785)))
(assert
 (let (($x1732 (not z_5_4)))
 (=> x_5_q $x1732)))
(assert
 (let (($x1679 (not z_5_5)))
 (=> x_5_q $x1679)))
(assert
 (let (($x1626 (not z_5_6)))
 (=> x_5_q $x1626)))
(assert
 (let (($x1573 (not z_5_7)))
 (=> x_5_q $x1573)))
(assert
 (let (($x1520 (not z_5_8)))
 (=> x_5_q $x1520)))
(assert
 (let (($x1466 (not z_5_9)))
 (=> x_5_q $x1466)))
(assert
 (let (($x1412 (not z_5_10)))
 (=> x_5_q $x1412)))
(assert
 (let (($x1358 (not z_5_11)))
 (=> x_5_q $x1358)))
(assert
 (let (($x1304 (not z_5_12)))
 (=> x_5_q $x1304)))
(assert
 (let (($x1250 (not z_5_13)))
 (=> x_5_q $x1250)))
(assert
 (let (($x1972 (not z_5_14)))
 (=> x_5_q $x1972)))
(assert
 (let (($x1963 (not z_5_15)))
 (=> x_5_q $x1963)))
(assert
 (let (($x1954 (not z_5_16)))
 (=> x_5_q $x1954)))
(assert
 (let (($x1946 (not z_5_17)))
 (=> x_5_q $x1946)))
(assert
 (let (($x1937 (not z_5_18)))
 (=> x_5_q $x1937)))
(assert
 (let (($x1928 (not z_5_19)))
 (=> x_5_q $x1928)))
(assert
 (let (($x1920 (not z_5_20)))
 (=> x_5_q $x1920)))
(assert
 (let (($x1911 (not z_5_21)))
 (=> x_5_q $x1911)))
(assert
 (let (($x1902 (not z_5_22)))
 (=> x_5_q $x1902)))
(assert
 (let (($x1893 (not z_5_23)))
 (=> x_5_q $x1893)))
(assert
 (let (($x1885 (not z_5_24)))
 (=> x_5_q $x1885)))
(assert
 (let (($x1876 (not z_5_25)))
 (=> x_5_q $x1876)))
(assert
 (let (($x1867 (not z_5_26)))
 (=> x_5_q $x1867)))
(assert
 (let (($x1859 (not z_5_27)))
 (=> x_5_q $x1859)))
(assert
 (let (($x1850 (not z_5_28)))
 (=> x_5_q $x1850)))
(assert
 (let (($x1841 (not z_5_29)))
 (=> x_5_q $x1841)))
(assert
 (let (($x1832 (not z_5_30)))
 (=> x_5_q $x1832)))
(assert
 (let (($x1823 (not z_5_31)))
 (=> x_5_q $x1823)))
(assert
 (let (($x1814 (not z_5_32)))
 (=> x_5_q $x1814)))
(assert
 (let (($x1806 (not z_5_33)))
 (=> x_5_q $x1806)))
(assert
 (=> x_5_q z_5_34))
(assert
 (=> x_5_q z_5_35))
(assert
 (let (($x1779 (not z_5_36)))
 (=> x_5_q $x1779)))
(assert
 (=> x_5_q z_5_37))
(assert
 (let (($x1762 (not z_5_38)))
 (=> x_5_q $x1762)))
(assert
 (let (($x1753 (not z_5_39)))
 (=> x_5_q $x1753)))
(assert
 (=> x_5_q z_5_40))
(assert
 (let (($x1735 (not z_5_41)))
 (=> x_5_q $x1735)))
(assert
 (let (($x1726 (not z_5_42)))
 (=> x_5_q $x1726)))
(assert
 (=> x_5_q z_5_43))
(assert
 (let (($x1709 (not z_5_44)))
 (=> x_5_q $x1709)))
(assert
 (let (($x1700 (not z_5_45)))
 (=> x_5_q $x1700)))
(assert
 (let (($x1691 (not z_5_46)))
 (=> x_5_q $x1691)))
(assert
 (=> x_5_q z_5_47))
(assert
 (=> x_5_q z_5_48))
(assert
 (let (($x1664 (not z_5_49)))
 (=> x_5_q $x1664)))
(assert
 (let (($x1655 (not z_5_50)))
 (=> x_5_q $x1655)))
(assert
 (let (($x1647 (not z_5_51)))
 (=> x_5_q $x1647)))
(assert
 (let (($x1638 (not z_5_52)))
 (=> x_5_q $x1638)))
(assert
 (=> x_5_q z_5_53))
(assert
 (let (($x1620 (not z_5_54)))
 (=> x_5_q $x1620)))
(assert
 (=> x_5_q z_5_55))
(assert
 (=> x_5_q z_5_56))
(assert
 (let (($x1594 (not z_5_57)))
 (=> x_5_q $x1594)))
(assert
 (let (($x1585 (not z_5_58)))
 (=> x_5_q $x1585)))
(assert
 (=> x_5_q z_5_59))
(assert
 (let (($x1567 (not z_5_60)))
 (=> x_5_q $x1567)))
(assert
 (let (($x1558 (not z_5_61)))
 (=> x_5_q $x1558)))
(assert
 (let (($x1549 (not z_5_62)))
 (=> x_5_q $x1549)))
(assert
 (let (($x1541 (not z_5_63)))
 (=> x_5_q $x1541)))
(assert
 (=> x_5_q z_5_64))
(assert
 (=> x_5_q z_5_65))
(assert
 (let (($x1514 (not z_5_66)))
 (=> x_5_q $x1514)))
(assert
 (let (($x1505 (not z_5_67)))
 (=> x_5_q $x1505)))
(assert
 (let (($x1496 (not z_5_68)))
 (=> x_5_q $x1496)))
(assert
 (=> x_5_q z_5_69))
(assert
 (=> x_5_q z_5_70))
(assert
 (let (($x1469 (not z_5_71)))
 (=> x_5_q $x1469)))
(assert
 (=> x_5_q z_5_72))
(assert
 (=> x_5_q z_5_73))
(assert
 (=> x_5_q z_5_74))
(assert
 (let (($x1433 (not z_5_75)))
 (=> x_5_q $x1433)))
(assert
 (let (($x1424 (not z_5_76)))
 (=> x_5_q $x1424)))
(assert
 (=> x_5_q z_5_77))
(assert
 (let (($x1406 (not z_5_78)))
 (=> x_5_q $x1406)))
(assert
 (let (($x1397 (not z_5_79)))
 (=> x_5_q $x1397)))
(assert
 (let (($x1388 (not z_5_80)))
 (=> x_5_q $x1388)))
(assert
 (=> x_5_q z_5_81))
(assert
 (or x_5_p x_5_q))
(assert
 (let (($x1332 (not x_5_->)))
 (let (($x1343 (not x_5_U)))
 (let (($x1345 (not x_5_v)))
 (let (($x1341 (not x_5_&)))
 (let (($x1352 (not x_5_X)))
 (let (($x1354 (not x_5_!)))
 (let (($x1350 (not x_5_F)))
 (let (($x1361 (not x_5_G)))
 (and $x1361 $x1350 $x1354 $x1352 $x1341 $x1345 $x1343 $x1332))))))))))
(check-sat)

